c FILE /home/rafael/Documents/HappySet/MIHS/inputs/happygen/output/graph_d_regular_k2_p0.3_v100_20241127_083958.txt
c SOURCE This is a d-regular graph formed for the happy graph colouring problem.
c DESCRIPTION It was generated using the problem generator of Rhyd Lewis
c
c GRAPH STATS
c Seed                             = 1573415050
c Number of Nodes                  = 100
c Number of colours k              = 2
c Number of pre-assignments        = 30
c Degree of all vertices           = 6
c Density                          = 0.0606061
c 
c The degrees of nodes 1 to 100, respectively, are as follows 
c [6, 6, 6, 6, 6, 6, 6, 6, 6, 6, 6, 6, 6, 6, 6, 6, 6, 6, 6, 6, 6, 6, 6, 6, 6, 6, 
c  6, 6, 6, 6, 6, 6, 6, 6, 6, 6, 6, 6, 6, 6, 6, 6, 6, 6, 6, 6, 6, 6, 6, 6, 6, 
c  6, 6, 6, 6, 6, 6, 6, 6, 6, 6, 6, 6, 6, 6, 6, 6, 6, 6, 6, 6, 6, 6, 6, 6, 6, 
c  6, 6, 6, 6, 6, 6, 6, 6, 6, 6, 6, 6, 6, 6, 6, 6, 6, 6, 6, 6, 6, 6, 6, 6] 
c  
p edge 100 300 2
e 1 7
e 1 9
e 1 52
e 1 75
e 1 89
e 1 90
e 2 26
e 2 28
e 2 34
e 2 51
e 2 60
e 2 63
e 3 10
e 3 21
e 3 27
e 3 51
e 3 61
e 3 99
e 4 12
e 4 25
e 4 39
e 4 42
e 4 51
e 4 86
e 5 22
e 5 26
e 5 28
e 5 35
e 5 38
e 5 81
e 6 31
e 6 32
e 6 80
e 6 82
e 6 88
e 6 91
e 7 49
e 7 57
e 7 62
e 7 74
e 7 95
e 8 33
e 8 38
e 8 53
e 8 55
e 8 64
e 8 78
e 9 22
e 9 47
e 9 61
e 9 70
e 9 75
e 10 29
e 10 36
e 10 46
e 10 60
e 10 78
e 11 42
e 11 55
e 11 69
e 11 70
e 11 94
e 11 97
e 12 32
e 12 57
e 12 62
e 12 80
e 12 85
e 13 14
e 13 23
e 13 42
e 13 85
e 13 93
e 13 94
e 14 17
e 14 41
e 14 78
e 14 90
e 14 96
e 15 24
e 15 27
e 15 53
e 15 57
e 15 63
e 15 85
e 16 31
e 16 52
e 16 72
e 16 89
e 16 97
e 16 100
e 17 27
e 17 51
e 17 70
e 17 73
e 17 91
e 18 24
e 18 37
e 18 44
e 18 63
e 18 84
e 18 100
e 19 33
e 19 38
e 19 40
e 19 43
e 19 88
e 19 91
e 20 43
e 20 58
e 20 77
e 20 88
e 20 94
e 20 98
e 21 55
e 21 67
e 21 74
e 21 76
e 21 86
e 22 29
e 22 32
e 22 59
e 22 83
e 23 34
e 23 35
e 23 41
e 23 66
e 23 85
e 24 28
e 24 51
e 24 58
e 24 90
e 25 26
e 25 45
e 25 54
e 25 88
e 25 100
e 26 59
e 26 64
e 26 85
e 27 30
e 27 40
e 27 98
e 28 53
e 28 78
e 28 83
e 29 41
e 29 46
e 29 55
e 29 56
e 30 73
e 30 82
e 30 86
e 30 93
e 30 97
e 31 54
e 31 68
e 31 83
e 31 89
e 32 54
e 32 61
e 32 98
e 33 47
e 33 62
e 33 96
e 33 98
e 34 43
e 34 81
e 34 95
e 34 99
e 35 47
e 35 60
e 35 76
e 35 100
e 36 37
e 36 43
e 36 47
e 36 71
e 36 72
e 37 41
e 37 70
e 37 79
e 37 92
e 38 63
e 38 66
e 38 80
e 39 42
e 39 45
e 39 49
e 39 50
e 39 71
e 40 62
e 40 69
e 40 74
e 40 98
e 41 76
e 41 77
e 42 53
e 42 68
e 43 44
e 43 95
e 44 48
e 44 49
e 44 84
e 44 96
e 45 52
e 45 71
e 45 84
e 45 93
e 46 51
e 46 64
e 46 86
e 46 87
e 47 87
e 47 96
e 48 52
e 48 74
e 48 89
e 48 90
e 48 96
e 49 65
e 49 67
e 49 75
e 50 64
e 50 68
e 50 82
e 50 84
e 50 99
e 52 53
e 52 57
e 53 93
e 54 69
e 54 80
e 54 92
e 55 56
e 55 81
e 56 66
e 56 78
e 56 82
e 56 95
e 57 72
e 57 73
e 58 59
e 58 77
e 58 90
e 58 92
e 59 68
e 59 71
e 59 88
e 60 68
e 60 86
e 60 99
e 61 75
e 61 80
e 61 87
e 62 74
e 62 100
e 63 65
e 63 92
e 64 91
e 64 92
e 65 68
e 65 69
e 65 93
e 65 100
e 66 76
e 66 81
e 66 90
e 67 71
e 67 73
e 67 80
e 67 87
e 69 83
e 69 91
e 70 89
e 70 95
e 71 94
e 72 79
e 72 94
e 72 97
e 73 75
e 73 89
e 74 85
e 75 99
e 76 77
e 76 79
e 77 83
e 77 91
e 78 94
e 79 83
e 79 84
e 79 86
e 81 87
e 81 97
e 82 93
e 82 96
e 84 98
e 87 88
e 92 99
e 95 97
n 1 1
n 2 1
n 6 2
n 7 1
n 9 1
n 11 1
n 16 2
n 21 2
n 24 2
n 27 1
n 29 1
n 33 2
n 34 1
n 35 2
n 41 1
n 42 1
n 43 1
n 45 2
n 57 1
n 61 1
n 66 1
n 69 1
n 71 2
n 73 1
n 78 1
n 79 2
n 82 2
n 86 2
n 93 2
n 96 2
